100
100
42 4
47 5
46 6
32 3
43 6
45 6
47 6
42 4
48 7
36 5
38 4
39 4
41 5
27 3
40 5
42 5
49 5
26 3
33 4
30 4
48 6
45 5
49 6
45 5
31 3
31 3
40 5
33 4
28 3
31 3
45 5
47 4
41 4
28 3
33 3
30 3
35 5
45 4
46 5
34 3
46 6
26 3
35 4
27 2
30 3
41 5
47 6
33 4
26 2
46 5
37 5
29 3
32 4
36 4
33 4
39 5
45 4
35 4
45 4
34 3
47 5
48 6
38 5
39 5
42 4
38 4
29 3
27 3
33 4
43 6
29 2
32 4
49 5
25 2
25 3
32 4
37 4
45 6
43 4
40 4
34 4
48 6
39 4
28 3
33 4
45 5
37 5
32 3
44 5
47 5
32 3
45 5
34 4
35 4
34 3
35 4
46 4
44 5
26 3
35 3
